p cnf 527 1250
a 441 330 334 337 342 345 349 352 358 361 470 264 368 371 375 378 385 388 392 395 497 311 401 404 410 413 417 420 425 515 430 433 7 13 24 30 2 1 40 18 6 12 35 23 29 50 45 60 55 70 65 80 75 85 90 95 105 100 110 115 120 130 125 135 140 145 176 158 150 154 171 163 167 181 190 185 200 195 209 205 219 214 224 229 234 245 240 250 259 254 263 274 269 278 286 282 291 296 301 306 310 316 320 324 0
d 328 441 2 0
d 366 259 263 274 278 470 0
d 363 7 250 30 13 0
d 428 2 515 320 7 324 0
d 400 306 310 316 2 497 0
d 3 2 0
d 4 1 2 0
d 5 1 2 0
d 8 7 0
d 9 6 7 0
d 10 6 7 0
d 11 1 2 6 7 0
d 14 13 0
d 15 12 13 0
d 16 12 13 0
d 17 1 2 6 7 12 13 0
d 19 6 12 0
d 20 18 6 12 0
d 21 18 6 12 0
d 22 1 2 6 7 12 13 18 0
d 25 24 0
d 26 23 24 0
d 27 23 24 0
d 28 1 2 6 7 12 13 18 23 24 0
d 31 30 0
d 32 29 30 0
d 33 29 30 0
d 34 1 2 6 7 12 13 18 23 24 29 30 0
d 36 23 29 0
d 37 35 23 29 0
d 38 35 23 29 0
d 39 1 2 6 7 12 13 18 23 24 29 30 35 0
d 41 18 35 0
d 42 40 18 35 0
d 43 40 18 35 0
d 44 1 2 6 7 12 13 18 23 24 29 30 35 40 0
d 46 7 12 0
d 47 45 7 12 0
d 48 45 7 12 0
d 49 1 2 6 7 12 13 18 23 24 29 30 35 40 45 0
d 51 45 35 0
d 52 50 45 35 0
d 53 50 45 35 0
d 54 1 2 6 7 12 13 18 23 24 29 30 35 40 45 50 0
d 56 6 13 0
d 57 55 6 13 0
d 58 55 6 13 0
d 59 1 2 6 7 12 13 18 23 24 29 30 35 40 45 50 55 0
d 61 55 35 0
d 62 60 55 35 0
d 63 60 55 35 0
d 64 1 2 6 7 12 13 18 23 24 29 30 35 40 45 50 55 60 0
d 66 7 13 0
d 67 65 7 13 0
d 68 65 7 13 0
d 69 1 2 6 7 12 13 18 23 24 29 30 35 40 45 50 55 60 65 0
d 71 65 35 0
d 72 70 65 35 0
d 73 70 65 35 0
d 74 1 2 6 7 12 13 18 23 24 29 30 35 40 45 50 55 60 65 70 0
d 76 24 29 0
d 77 75 24 29 0
d 78 75 24 29 0
d 79 1 2 6 7 12 13 18 23 24 29 30 35 40 45 50 55 60 65 70 75 0
d 81 18 75 0
d 82 80 18 75 0
d 83 80 18 75 0
d 84 1 2 6 7 12 13 18 23 24 29 30 35 40 45 50 55 60 65 70 75 80 0
d 86 45 75 0
d 87 85 45 75 0
d 88 85 45 75 0
d 89 1 2 6 7 12 13 18 23 24 29 30 35 40 45 50 55 60 65 70 75 80 85 0
d 91 55 75 0
d 92 90 55 75 0
d 93 90 55 75 0
d 94 1 2 6 7 12 13 18 23 24 29 30 35 40 45 50 55 60 65 70 75 80 85 90 0
d 96 65 75 0
d 97 95 65 75 0
d 98 95 65 75 0
d 99 1 2 6 7 12 13 18 23 24 29 30 35 40 45 50 55 60 65 70 75 80 85 90 95 0
d 101 23 30 0
d 102 100 23 30 0
d 103 100 23 30 0
d 104 1 2 6 7 12 13 18 23 24 29 30 35 40 45 50 55 60 65 70 75 80 85 90 95 100 0
d 106 18 100 0
d 107 105 18 100 0
d 108 105 18 100 0
d 109 1 2 6 7 12 13 18 23 24 29 30 35 40 45 50 55 60 65 70 75 80 85 90 95 100 105 0
d 111 45 100 0
d 112 110 45 100 0
d 113 110 45 100 0
d 114 1 2 6 7 12 13 18 23 24 29 30 35 40 45 50 55 60 65 70 75 80 85 90 95 100 105 110 0
d 116 55 100 0
d 117 115 55 100 0
d 118 115 55 100 0
d 119 1 2 6 7 12 13 18 23 24 29 30 35 40 45 50 55 60 65 70 75 80 85 90 95 100 105 110 115 0
d 121 65 100 0
d 122 120 65 100 0
d 123 120 65 100 0
d 124 1 2 6 7 12 13 18 23 24 29 30 35 40 45 50 55 60 65 70 75 80 85 90 95 100 105 110 115 120 0
d 126 24 30 0
d 127 125 24 30 0
d 128 125 24 30 0
d 129 1 2 6 7 12 13 18 23 24 29 30 35 40 45 50 55 60 65 70 75 80 85 90 95 100 105 110 115 120 125 0
d 131 18 125 0
d 132 130 18 125 0
d 133 130 18 125 0
d 134 1 2 6 7 12 13 18 23 24 29 30 35 40 45 50 55 60 65 70 75 80 85 90 95 100 105 110 115 120 125 130 0
d 136 45 125 0
d 137 135 45 125 0
d 138 135 45 125 0
d 139 1 2 6 7 12 13 18 23 24 29 30 35 40 45 50 55 60 65 70 75 80 85 90 95 100 105 110 115 120 125 130 135 0
d 141 55 125 0
d 142 140 55 125 0
d 143 140 55 125 0
d 144 1 2 6 7 12 13 18 23 24 29 30 35 40 45 50 55 60 65 70 75 80 85 90 95 100 105 110 115 120 125 130 135 140 0
d 146 65 125 0
d 147 145 65 125 0
d 148 145 65 125 0
d 149 1 2 6 7 12 13 18 23 24 29 30 35 40 45 50 55 60 65 70 75 80 85 90 95 100 105 110 115 120 125 130 135 140 145 0
d 151 150 7 0
d 152 150 7 0
d 153 1 2 6 7 12 13 18 23 24 29 30 35 40 45 50 55 60 65 70 75 80 85 90 95 100 105 110 115 120 125 130 135 140 145 150 0
d 155 154 13 0
d 156 154 13 0
d 157 1 2 6 7 12 13 18 23 24 29 30 35 40 45 50 55 60 65 70 75 80 85 90 95 100 105 110 115 120 125 130 135 140 145 150 154 0
d 159 150 154 0
d 160 158 150 154 0
d 161 158 150 154 0
d 162 1 2 6 7 12 13 18 23 24 29 30 35 40 45 50 55 60 65 70 75 80 85 90 95 100 105 110 115 120 125 130 135 140 145 150 154 158 0
d 164 163 24 0
d 165 163 24 0
d 166 1 2 6 7 12 13 18 23 24 29 30 35 40 45 50 55 60 65 70 75 80 85 90 95 100 105 110 115 120 125 130 135 140 145 150 154 158 163 0
d 168 167 30 0
d 169 167 30 0
d 170 1 2 6 7 12 13 18 23 24 29 30 35 40 45 50 55 60 65 70 75 80 85 90 95 100 105 110 115 120 125 130 135 140 145 150 154 158 163 167 0
d 172 163 167 0
d 173 171 163 167 0
d 174 171 163 167 0
d 175 1 2 6 7 12 13 18 23 24 29 30 35 40 45 50 55 60 65 70 75 80 85 90 95 100 105 110 115 120 125 130 135 140 145 150 154 158 163 167 171 0
d 177 158 171 0
d 178 176 158 171 0
d 179 176 158 171 0
d 180 1 2 6 7 12 13 18 23 24 29 30 35 40 45 50 55 60 65 70 75 80 85 90 95 100 105 110 115 120 125 130 135 140 145 150 154 158 163 167 171 176 0
d 182 181 2 0
d 183 181 2 0
d 184 1 2 6 7 12 13 18 23 24 29 30 35 40 45 50 55 60 65 70 75 80 85 90 95 100 105 110 115 120 125 130 135 140 145 150 154 158 163 167 171 176 181 0
d 186 7 154 0
d 187 185 7 154 0
d 188 185 7 154 0
d 189 1 2 6 7 12 13 18 23 24 29 30 35 40 45 50 55 60 65 70 75 80 85 90 95 100 105 110 115 120 125 130 135 140 145 150 154 158 163 167 171 176 181 185 0
d 191 185 171 0
d 192 190 185 171 0
d 193 190 185 171 0
d 194 1 2 6 7 12 13 18 23 24 29 30 35 40 45 50 55 60 65 70 75 80 85 90 95 100 105 110 115 120 125 130 135 140 145 150 154 158 163 167 171 176 181 185 190 0
d 196 150 13 0
d 197 195 150 13 0
d 198 195 150 13 0
d 199 1 2 6 7 12 13 18 23 24 29 30 35 40 45 50 55 60 65 70 75 80 85 90 95 100 105 110 115 120 125 130 135 140 145 150 154 158 163 167 171 176 181 185 190 195 0
d 201 195 171 0
d 202 200 195 171 0
d 203 200 195 171 0
d 204 1 2 6 7 12 13 18 23 24 29 30 35 40 45 50 55 60 65 70 75 80 85 90 95 100 105 110 115 120 125 130 135 140 145 150 154 158 163 167 171 176 181 185 190 195 200 0
d 206 205 7 13 0
d 207 205 7 13 0
d 208 1 2 6 7 12 13 18 23 24 29 30 35 40 45 50 55 60 65 70 75 80 85 90 95 100 105 110 115 120 125 130 135 140 145 150 154 158 163 167 171 176 181 185 190 195 200 205 0
d 210 205 171 0
d 211 209 205 171 0
d 212 209 205 171 0
d 213 1 2 6 7 12 13 18 23 24 29 30 35 40 45 50 55 60 65 70 75 80 85 90 95 100 105 110 115 120 125 130 135 140 145 150 154 158 163 167 171 176 181 185 190 195 200 205 209 0
d 215 24 167 0
d 216 214 24 167 0
d 217 214 24 167 0
d 218 1 2 6 7 12 13 18 23 24 29 30 35 40 45 50 55 60 65 70 75 80 85 90 95 100 105 110 115 120 125 130 135 140 145 150 154 158 163 167 171 176 181 185 190 195 200 205 209 214 0
d 220 158 214 0
d 221 219 158 214 0
d 222 219 158 214 0
d 223 1 2 6 7 12 13 18 23 24 29 30 35 40 45 50 55 60 65 70 75 80 85 90 95 100 105 110 115 120 125 130 135 140 145 150 154 158 163 167 171 176 181 185 190 195 200 205 209 214 219 0
d 225 185 214 0
d 226 224 185 214 0
d 227 224 185 214 0
d 228 1 2 6 7 12 13 18 23 24 29 30 35 40 45 50 55 60 65 70 75 80 85 90 95 100 105 110 115 120 125 130 135 140 145 150 154 158 163 167 171 176 181 185 190 195 200 205 209 214 219 224 0
d 230 195 214 0
d 231 229 195 214 0
d 232 229 195 214 0
d 233 1 2 6 7 12 13 18 23 24 29 30 35 40 45 50 55 60 65 70 75 80 85 90 95 100 105 110 115 120 125 130 135 140 145 150 154 158 163 167 171 176 181 185 190 195 200 205 209 214 219 224 229 0
d 235 205 214 0
d 236 205 214 0
d 237 234 205 214 0
d 238 234 205 214 0
d 239 1 2 6 7 12 13 18 23 24 29 30 35 40 45 50 55 60 65 70 75 80 85 90 95 100 105 110 115 120 125 130 135 140 145 150 154 158 163 167 171 176 181 185 190 195 200 205 209 214 219 224 229 234 0
d 241 163 30 0
d 242 240 163 30 0
d 243 240 163 30 0
d 244 1 2 6 7 12 13 18 23 24 29 30 35 40 45 50 55 60 65 70 75 80 85 90 95 100 105 110 115 120 125 130 135 140 145 150 154 158 163 167 171 176 181 185 190 195 200 205 209 214 219 224 229 234 240 0
d 246 158 240 0
d 247 245 158 240 0
d 248 245 158 240 0
d 249 1 2 6 7 12 13 18 23 24 29 30 35 40 45 50 55 60 65 70 75 80 85 90 95 100 105 110 115 120 125 130 135 140 145 150 154 158 163 167 171 176 181 185 190 195 200 205 209 214 219 224 229 234 240 245 0
d 251 250 163 0
d 252 250 163 0
d 253 1 2 6 7 12 13 18 23 24 29 30 35 40 45 50 55 60 65 70 75 80 85 90 95 100 105 110 115 120 125 130 135 140 145 150 154 158 163 167 171 176 181 185 190 195 200 205 209 214 219 224 229 234 240 245 250 0
d 255 195 240 0
d 256 254 195 240 0
d 257 254 195 240 0
d 258 1 2 6 7 12 13 18 23 24 29 30 35 40 45 50 55 60 65 70 75 80 85 90 95 100 105 110 115 120 125 130 135 140 145 150 154 158 163 167 171 176 181 185 190 195 200 205 209 214 219 224 229 234 240 245 250 254 0
d 260 259 254 0
d 261 259 254 0
d 262 1 2 6 7 12 13 18 23 24 29 30 35 40 45 50 55 60 65 70 75 80 85 90 95 100 105 110 115 120 125 130 135 140 145 150 154 158 163 167 171 176 181 185 190 195 200 205 209 214 219 224 229 234 240 245 250 254 259 0
d 265 181 264 0
d 266 263 181 264 0
d 267 263 181 264 0
d 268 1 2 6 7 12 13 18 23 24 29 30 35 40 45 50 55 60 65 70 75 80 85 90 95 100 105 110 115 120 125 130 135 140 145 150 154 158 163 167 171 176 181 185 190 195 200 205 209 214 219 224 229 234 240 245 250 254 259 263 264 0
d 270 205 240 0
d 271 269 205 240 0
d 272 269 205 240 0
d 273 1 2 6 7 12 13 18 23 24 29 30 35 40 45 50 55 60 65 70 75 80 85 90 95 100 105 110 115 120 125 130 135 140 145 150 154 158 163 167 171 176 181 185 190 195 200 205 209 214 219 224 229 234 240 245 250 254 259 263 264 269 0
d 275 274 269 0
d 276 274 269 0
d 277 1 2 6 7 12 13 18 23 24 29 30 35 40 45 50 55 60 65 70 75 80 85 90 95 100 105 110 115 120 125 130 135 140 145 150 154 158 163 167 171 176 181 185 190 195 200 205 209 214 219 224 229 234 240 245 250 254 259 263 264 269 274 0
d 279 278 181 0
d 280 278 181 0
d 281 1 2 6 7 12 13 18 23 24 29 30 35 40 45 50 55 60 65 70 75 80 85 90 95 100 105 110 115 120 125 130 135 140 145 150 154 158 163 167 171 176 181 185 190 195 200 205 209 214 219 224 229 234 240 245 250 254 259 263 264 269 274 278 0
d 283 282 24 30 0
d 284 282 24 30 0
d 285 1 2 6 7 12 13 18 23 24 29 30 35 40 45 50 55 60 65 70 75 80 85 90 95 100 105 110 115 120 125 130 135 140 145 150 154 158 163 167 171 176 181 185 190 195 200 205 209 214 219 224 229 234 240 245 250 254 259 263 264 269 274 278 282 0
d 287 158 282 0
d 288 286 158 282 0
d 289 286 158 282 0
d 290 1 2 6 7 12 13 18 23 24 29 30 35 40 45 50 55 60 65 70 75 80 85 90 95 100 105 110 115 120 125 130 135 140 145 150 154 158 163 167 171 176 181 185 190 195 200 205 209 214 219 224 229 234 240 245 250 254 259 263 264 269 274 278 282 286 0
d 292 185 282 0
d 293 291 185 282 0
d 294 291 185 282 0
d 295 1 2 6 7 12 13 18 23 24 29 30 35 40 45 50 55 60 65 70 75 80 85 90 95 100 105 110 115 120 125 130 135 140 145 150 154 158 163 167 171 176 181 185 190 195 200 205 209 214 219 224 229 234 240 245 250 254 259 263 264 269 274 278 282 286 291 0
d 297 195 282 0
d 298 296 195 282 0
d 299 296 195 282 0
d 300 1 2 6 7 12 13 18 23 24 29 30 35 40 45 50 55 60 65 70 75 80 85 90 95 100 105 110 115 120 125 130 135 140 145 150 154 158 163 167 171 176 181 185 190 195 200 205 209 214 219 224 229 234 240 245 250 254 259 263 264 269 274 278 282 286 291 296 0
d 302 205 282 0
d 303 301 205 282 0
d 304 301 205 282 0
d 305 1 2 6 7 12 13 18 23 24 29 30 35 40 45 50 55 60 65 70 75 80 85 90 95 100 105 110 115 120 125 130 135 140 145 150 154 158 163 167 171 176 181 185 190 195 200 205 209 214 219 224 229 234 240 245 250 254 259 263 264 269 274 278 282 286 291 296 301 0
d 307 306 219 0
d 308 306 219 0
d 309 1 2 6 7 12 13 18 23 24 29 30 35 40 45 50 55 60 65 70 75 80 85 90 95 100 105 110 115 120 125 130 135 140 145 150 154 158 163 167 171 176 181 185 190 195 200 205 209 214 219 224 229 234 240 245 250 254 259 263 264 269 274 278 282 286 291 296 301 306 0
d 312 2 311 0
d 313 310 2 311 0
d 314 310 2 311 0
d 315 1 2 6 7 12 13 18 23 24 29 30 35 40 45 50 55 60 65 70 75 80 85 90 95 100 105 110 115 120 125 130 135 140 145 150 154 158 163 167 171 176 181 185 190 195 200 205 209 214 219 224 229 234 240 245 250 254 259 263 264 269 274 278 282 286 291 296 301 306 310 311 0
d 317 316 224 0
d 318 316 224 0
d 319 1 2 6 7 12 13 18 23 24 29 30 35 40 45 50 55 60 65 70 75 80 85 90 95 100 105 110 115 120 125 130 135 140 145 150 154 158 163 167 171 176 181 185 190 195 200 205 209 214 219 224 229 234 240 245 250 254 259 263 264 269 274 278 282 286 291 296 301 306 310 311 316 0
d 321 320 282 0
d 322 320 282 0
d 323 1 2 6 7 12 13 18 23 24 29 30 35 40 45 50 55 60 65 70 75 80 85 90 95 100 105 110 115 120 125 130 135 140 145 150 154 158 163 167 171 176 181 185 190 195 200 205 209 214 219 224 229 234 240 245 250 254 259 263 264 269 274 278 282 286 291 296 301 306 310 311 316 320 0
d 325 324 154 0
d 326 324 154 0
d 327 1 2 6 7 12 13 18 23 24 29 30 35 40 45 50 55 60 65 70 75 80 85 90 95 100 105 110 115 120 125 130 135 140 145 150 154 158 163 167 171 176 181 185 190 195 200 205 209 214 219 224 229 234 240 245 250 254 259 263 264 269 274 278 282 286 291 296 301 306 310 311 316 320 324 0
d 329 441 2 176 0
d 331 181 330 0
d 332 181 330 190 0
d 333 441 2 176 181 330 190 0
d 335 181 334 0
d 336 181 334 200 0
d 338 181 337 0
d 339 181 337 209 0
d 340 181 334 200 337 209 0
d 341 441 2 176 181 330 190 334 200 337 209 0
d 343 181 342 0
d 344 181 342 219 0
d 346 181 345 0
d 347 181 345 224 0
d 348 181 342 219 345 224 0
d 350 181 349 0
d 351 181 349 229 0
d 353 181 352 0
d 354 181 352 234 0
d 355 181 349 229 352 234 0
d 356 181 342 219 345 224 349 229 352 234 0
d 357 441 2 176 181 330 190 334 200 337 209 342 219 345 224 349 229 352 234 0
d 359 181 358 0
d 360 181 358 245 0
d 362 181 361 0
d 364 181 361 7 250 30 13 0
d 365 181 358 245 361 7 250 30 13 0
d 367 181 358 245 361 7 250 30 13 259 263 274 278 470 0
d 369 181 368 0
d 370 181 368 286 0
d 372 181 371 0
d 373 181 371 291 0
d 374 181 368 286 371 291 0
d 376 181 375 0
d 377 181 375 296 0
d 379 181 378 0
d 380 181 378 301 0
d 381 181 375 296 378 301 0
d 382 181 368 286 371 291 375 296 378 301 0
d 383 181 358 245 361 7 250 30 13 259 263 274 278 470 368 286 371 291 375 296 378 301 0
d 384 441 2 176 181 330 190 334 200 337 209 342 219 345 224 349 229 352 234 358 245 361 7 250 30 13 259 263 274 278 470 368 286 371 291 375 296 378 301 0
d 386 2 385 0
d 387 2 385 176 0
d 389 2 388 0
d 390 2 388 190 0
d 391 2 385 176 388 190 0
d 393 2 392 0
d 394 2 392 200 0
d 396 2 395 0
d 397 2 395 209 0
d 398 2 392 200 395 209 0
d 399 2 385 176 388 190 392 200 395 209 0
d 402 2 401 0
d 403 2 401 229 0
d 405 2 404 0
d 406 2 404 234 0
d 407 2 401 229 404 234 0
d 408 306 310 316 2 497 401 229 404 234 0
d 409 2 385 176 388 190 392 200 395 209 306 310 316 497 401 229 404 234 0
d 411 2 410 0
d 412 2 410 245 0
d 414 2 413 0
d 415 2 413 7 250 30 13 0
d 416 2 410 245 413 7 250 30 13 0
d 418 2 417 0
d 419 2 417 254 0
d 421 2 420 0
d 422 2 420 269 0
d 423 2 417 254 420 269 0
d 424 2 410 245 413 7 250 30 13 417 254 420 269 0
d 426 2 425 0
d 427 2 425 286 0
d 429 2 425 286 515 320 7 324 0
d 431 2 430 0
d 432 2 430 296 0
d 434 2 433 0
d 435 2 433 301 0
d 436 2 430 296 433 301 0
d 437 2 425 286 515 320 7 324 430 296 433 301 0
d 438 2 410 245 413 7 250 30 13 417 254 420 269 425 286 515 320 324 430 296 433 301 0
d 439 2 385 176 388 190 392 200 395 209 306 310 316 497 401 229 404 234 410 245 413 7 250 30 13 417 254 420 269 425 286 515 320 324 430 296 433 301 0
d 440 441 2 176 181 330 190 334 200 337 209 342 219 345 224 349 229 352 234 358 245 361 7 250 30 13 259 263 274 278 470 368 286 371 291 375 296 378 301 385 388 392 395 306 310 316 497 401 404 410 413 417 254 420 269 425 515 320 324 430 433 0
d 442 1 441 0
d 443 1 441 40 0
d 444 1 330 0
d 445 1 330 50 0
d 446 1 441 40 330 50 0
d 447 1 334 0
d 448 1 334 60 0
d 449 1 337 0
d 450 1 337 70 0
d 451 1 334 60 337 70 0
d 452 1 441 40 330 50 334 60 337 70 0
d 453 1 342 0
d 454 1 342 80 0
d 455 1 345 0
d 456 1 345 85 0
d 457 1 342 80 345 85 0
d 458 1 349 0
d 459 1 349 90 0
d 460 1 352 0
d 461 1 352 95 0
d 462 1 349 90 352 95 0
d 463 1 342 80 345 85 349 90 352 95 0
d 464 1 441 40 330 50 334 60 337 70 342 80 345 85 349 90 352 95 0
d 465 1 358 0
d 466 1 358 105 0
d 467 1 361 0
d 468 1 361 110 0
d 469 1 358 105 361 110 0
d 471 1 470 0
d 472 1 470 115 0
d 473 1 264 0
d 474 1 264 120 0
d 475 1 470 115 264 120 0
d 476 1 358 105 361 110 470 115 264 120 0
d 477 1 368 0
d 478 1 368 130 0
d 479 1 371 0
d 480 1 371 135 0
d 481 1 368 130 371 135 0
d 482 1 375 0
d 483 1 375 140 0
d 484 1 378 0
d 485 1 378 145 0
d 486 1 375 140 378 145 0
d 487 1 368 130 371 135 375 140 378 145 0
d 488 1 358 105 361 110 470 115 264 120 368 130 371 135 375 140 378 145 0
d 489 1 441 40 330 50 334 60 337 70 342 80 345 85 349 90 352 95 358 105 361 110 470 115 264 120 368 130 371 135 375 140 378 145 0
d 490 2 385 40 0
d 491 2 388 50 0
d 492 2 385 40 388 50 0
d 493 2 392 60 0
d 494 2 395 70 0
d 495 2 392 60 395 70 0
d 496 2 385 40 388 50 392 60 395 70 0
d 498 2 497 0
d 499 2 497 80 0
d 500 2 311 85 0
d 501 2 497 80 311 85 0
d 502 2 401 90 0
d 503 2 404 95 0
d 504 2 401 90 404 95 0
d 505 2 497 80 311 85 401 90 404 95 0
d 506 2 385 40 388 50 392 60 395 70 497 80 311 85 401 90 404 95 0
d 507 2 410 105 0
d 508 2 413 110 0
d 509 2 410 105 413 110 0
d 510 2 417 115 0
d 511 2 420 120 0
d 512 2 417 115 420 120 0
d 513 2 410 105 413 110 417 115 420 120 0
d 514 2 425 130 0
d 516 2 515 0
d 517 2 515 135 0
d 518 2 425 130 515 135 0
d 519 2 430 140 0
d 520 2 433 145 0
d 521 2 430 140 433 145 0
d 522 2 425 130 515 135 430 140 433 145 0
d 523 2 410 105 413 110 417 115 420 120 425 130 515 135 430 140 433 145 0
d 524 2 385 40 388 50 392 60 395 70 497 80 311 85 401 90 404 95 410 105 413 110 417 115 420 120 425 130 515 135 430 140 433 145 0
d 525 1 441 40 330 50 334 60 337 70 342 80 345 85 349 90 352 95 358 105 361 110 470 115 264 120 368 130 371 135 375 140 378 145 2 385 388 392 395 497 311 401 404 410 413 417 420 425 515 430 433 0
d 526 441 2 176 181 330 190 334 200 337 209 342 219 345 224 349 229 352 234 358 245 361 7 250 30 13 259 263 274 278 470 368 286 371 291 375 296 378 301 385 388 392 395 306 310 316 497 401 404 410 413 417 254 420 269 425 515 320 324 430 433 1 40 50 60 70 80 85 90 95 105 110 115 264 120 130 135 140 145 311 0
d 527 1 2 6 7 12 13 18 23 24 29 30 35 40 45 50 55 60 65 70 75 80 85 90 95 100 105 110 115 120 125 130 135 140 145 150 154 158 163 167 171 176 181 185 190 195 200 205 209 214 219 224 229 234 240 245 250 254 259 263 264 269 274 278 282 286 291 296 301 306 310 311 316 320 324 441 330 334 337 342 345 349 352 358 361 470 368 371 375 378 385 388 392 395 497 401 404 410 413 417 420 425 515 430 433 0
3 2 0
-3 -2 0
4 -1 -3 0
4 1 3 0
-4 -1 3 0
-4 1 -3 0
5 4 0
-5 -4 0
8 7 0
-8 -7 0
9 -6 -8 0
9 6 8 0
-9 -6 8 0
-9 6 -8 0
10 9 0
-10 -9 0
11 -5 0
11 -10 0
-11 5 10 0
14 13 0
-14 -13 0
15 -12 -14 0
15 12 14 0
-15 -12 14 0
-15 12 -14 0
16 15 0
-16 -15 0
17 -11 0
17 -16 0
-17 11 16 0
-19 6 0
-19 12 0
19 -6 -12 0
20 -18 -19 0
20 18 19 0
-20 -18 19 0
-20 18 -19 0
21 20 0
-21 -20 0
22 -17 0
22 -21 0
-22 17 21 0
25 24 0
-25 -24 0
26 -23 -25 0
26 23 25 0
-26 -23 25 0
-26 23 -25 0
27 26 0
-27 -26 0
28 -22 0
28 -27 0
-28 22 27 0
31 30 0
-31 -30 0
32 -29 -31 0
32 29 31 0
-32 -29 31 0
-32 29 -31 0
33 32 0
-33 -32 0
34 -28 0
34 -33 0
-34 28 33 0
-36 23 0
-36 29 0
36 -23 -29 0
37 -35 -36 0
37 35 36 0
-37 -35 36 0
-37 35 -36 0
38 37 0
-38 -37 0
39 -34 0
39 -38 0
-39 34 38 0
-41 18 0
-41 35 0
41 -18 -35 0
42 -40 -41 0
42 40 41 0
-42 -40 41 0
-42 40 -41 0
43 42 0
-43 -42 0
44 -39 0
44 -43 0
-44 39 43 0
-46 7 0
-46 12 0
46 -7 -12 0
47 -45 -46 0
47 45 46 0
-47 -45 46 0
-47 45 -46 0
48 47 0
-48 -47 0
49 -44 0
49 -48 0
-49 44 48 0
-51 45 0
-51 35 0
51 -45 -35 0
52 -50 -51 0
52 50 51 0
-52 -50 51 0
-52 50 -51 0
53 52 0
-53 -52 0
54 -49 0
54 -53 0
-54 49 53 0
-56 6 0
-56 13 0
56 -6 -13 0
57 -55 -56 0
57 55 56 0
-57 -55 56 0
-57 55 -56 0
58 57 0
-58 -57 0
59 -54 0
59 -58 0
-59 54 58 0
-61 55 0
-61 35 0
61 -55 -35 0
62 -60 -61 0
62 60 61 0
-62 -60 61 0
-62 60 -61 0
63 62 0
-63 -62 0
64 -59 0
64 -63 0
-64 59 63 0
-66 7 0
-66 13 0
66 -7 -13 0
67 -65 -66 0
67 65 66 0
-67 -65 66 0
-67 65 -66 0
68 67 0
-68 -67 0
69 -64 0
69 -68 0
-69 64 68 0
-71 65 0
-71 35 0
71 -65 -35 0
72 -70 -71 0
72 70 71 0
-72 -70 71 0
-72 70 -71 0
73 72 0
-73 -72 0
74 -69 0
74 -73 0
-74 69 73 0
-76 24 0
-76 29 0
76 -24 -29 0
77 -75 -76 0
77 75 76 0
-77 -75 76 0
-77 75 -76 0
78 77 0
-78 -77 0
79 -74 0
79 -78 0
-79 74 78 0
-81 18 0
-81 75 0
81 -18 -75 0
82 -80 -81 0
82 80 81 0
-82 -80 81 0
-82 80 -81 0
83 82 0
-83 -82 0
84 -79 0
84 -83 0
-84 79 83 0
-86 45 0
-86 75 0
86 -45 -75 0
87 -85 -86 0
87 85 86 0
-87 -85 86 0
-87 85 -86 0
88 87 0
-88 -87 0
89 -84 0
89 -88 0
-89 84 88 0
-91 55 0
-91 75 0
91 -55 -75 0
92 -90 -91 0
92 90 91 0
-92 -90 91 0
-92 90 -91 0
93 92 0
-93 -92 0
94 -89 0
94 -93 0
-94 89 93 0
-96 65 0
-96 75 0
96 -65 -75 0
97 -95 -96 0
97 95 96 0
-97 -95 96 0
-97 95 -96 0
98 97 0
-98 -97 0
99 -94 0
99 -98 0
-99 94 98 0
-101 23 0
-101 30 0
101 -23 -30 0
102 -100 -101 0
102 100 101 0
-102 -100 101 0
-102 100 -101 0
103 102 0
-103 -102 0
104 -99 0
104 -103 0
-104 99 103 0
-106 18 0
-106 100 0
106 -18 -100 0
107 -105 -106 0
107 105 106 0
-107 -105 106 0
-107 105 -106 0
108 107 0
-108 -107 0
109 -104 0
109 -108 0
-109 104 108 0
-111 45 0
-111 100 0
111 -45 -100 0
112 -110 -111 0
112 110 111 0
-112 -110 111 0
-112 110 -111 0
113 112 0
-113 -112 0
114 -109 0
114 -113 0
-114 109 113 0
-116 55 0
-116 100 0
116 -55 -100 0
117 -115 -116 0
117 115 116 0
-117 -115 116 0
-117 115 -116 0
118 117 0
-118 -117 0
119 -114 0
119 -118 0
-119 114 118 0
-121 65 0
-121 100 0
121 -65 -100 0
122 -120 -121 0
122 120 121 0
-122 -120 121 0
-122 120 -121 0
123 122 0
-123 -122 0
124 -119 0
124 -123 0
-124 119 123 0
-126 24 0
-126 30 0
126 -24 -30 0
127 -125 -126 0
127 125 126 0
-127 -125 126 0
-127 125 -126 0
128 127 0
-128 -127 0
129 -124 0
129 -128 0
-129 124 128 0
-131 18 0
-131 125 0
131 -18 -125 0
132 -130 -131 0
132 130 131 0
-132 -130 131 0
-132 130 -131 0
133 132 0
-133 -132 0
134 -129 0
134 -133 0
-134 129 133 0
-136 45 0
-136 125 0
136 -45 -125 0
137 -135 -136 0
137 135 136 0
-137 -135 136 0
-137 135 -136 0
138 137 0
-138 -137 0
139 -134 0
139 -138 0
-139 134 138 0
-141 55 0
-141 125 0
141 -55 -125 0
142 -140 -141 0
142 140 141 0
-142 -140 141 0
-142 140 -141 0
143 142 0
-143 -142 0
144 -139 0
144 -143 0
-144 139 143 0
-146 65 0
-146 125 0
146 -65 -125 0
147 -145 -146 0
147 145 146 0
-147 -145 146 0
-147 145 -146 0
148 147 0
-148 -147 0
149 -144 0
149 -148 0
-149 144 148 0
151 -150 -8 0
151 150 8 0
-151 -150 8 0
-151 150 -8 0
152 151 0
-152 -151 0
153 -149 0
153 -152 0
-153 149 152 0
155 -154 -14 0
155 154 14 0
-155 -154 14 0
-155 154 -14 0
156 155 0
-156 -155 0
157 -153 0
157 -156 0
-157 153 156 0
-159 150 0
-159 154 0
159 -150 -154 0
160 -158 -159 0
160 158 159 0
-160 -158 159 0
-160 158 -159 0
161 160 0
-161 -160 0
162 -157 0
162 -161 0
-162 157 161 0
164 -163 -25 0
164 163 25 0
-164 -163 25 0
-164 163 -25 0
165 164 0
-165 -164 0
166 -162 0
166 -165 0
-166 162 165 0
168 -167 -31 0
168 167 31 0
-168 -167 31 0
-168 167 -31 0
169 168 0
-169 -168 0
170 -166 0
170 -169 0
-170 166 169 0
-172 163 0
-172 167 0
172 -163 -167 0
173 -171 -172 0
173 171 172 0
-173 -171 172 0
-173 171 -172 0
174 173 0
-174 -173 0
175 -170 0
175 -174 0
-175 170 174 0
-177 158 0
-177 171 0
177 -158 -171 0
178 -176 -177 0
178 176 177 0
-178 -176 177 0
-178 176 -177 0
179 178 0
-179 -178 0
180 -175 0
180 -179 0
-180 175 179 0
182 -181 -3 0
182 181 3 0
-182 -181 3 0
-182 181 -3 0
183 182 0
-183 -182 0
184 -180 0
184 -183 0
-184 180 183 0
-186 7 0
-186 154 0
186 -7 -154 0
187 -185 -186 0
187 185 186 0
-187 -185 186 0
-187 185 -186 0
188 187 0
-188 -187 0
189 -184 0
189 -188 0
-189 184 188 0
-191 185 0
-191 171 0
191 -185 -171 0
192 -190 -191 0
192 190 191 0
-192 -190 191 0
-192 190 -191 0
193 192 0
-193 -192 0
194 -189 0
194 -193 0
-194 189 193 0
-196 150 0
-196 13 0
196 -150 -13 0
197 -195 -196 0
197 195 196 0
-197 -195 196 0
-197 195 -196 0
198 197 0
-198 -197 0
199 -194 0
199 -198 0
-199 194 198 0
-201 195 0
-201 171 0
201 -195 -171 0
202 -200 -201 0
202 200 201 0
-202 -200 201 0
-202 200 -201 0
203 202 0
-203 -202 0
204 -199 0
204 -203 0
-204 199 203 0
206 -205 -66 0
206 205 66 0
-206 -205 66 0
-206 205 -66 0
207 206 0
-207 -206 0
208 -204 0
208 -207 0
-208 204 207 0
-210 205 0
-210 171 0
210 -205 -171 0
211 -209 -210 0
211 209 210 0
-211 -209 210 0
-211 209 -210 0
212 211 0
-212 -211 0
213 -208 0
213 -212 0
-213 208 212 0
-215 24 0
-215 167 0
215 -24 -167 0
216 -214 -215 0
216 214 215 0
-216 -214 215 0
-216 214 -215 0
217 216 0
-217 -216 0
218 -213 0
218 -217 0
-218 213 217 0
-220 158 0
-220 214 0
220 -158 -214 0
221 -219 -220 0
221 219 220 0
-221 -219 220 0
-221 219 -220 0
222 221 0
-222 -221 0
223 -218 0
223 -222 0
-223 218 222 0
-225 185 0
-225 214 0
225 -185 -214 0
226 -224 -225 0
226 224 225 0
-226 -224 225 0
-226 224 -225 0
227 226 0
-227 -226 0
228 -223 0
228 -227 0
-228 223 227 0
-230 195 0
-230 214 0
230 -195 -214 0
231 -229 -230 0
231 229 230 0
-231 -229 230 0
-231 229 -230 0
232 231 0
-232 -231 0
233 -228 0
233 -232 0
-233 228 232 0
-235 205 0
-235 214 0
235 -205 -214 0
236 235 0
-236 -235 0
237 -234 -236 0
237 234 236 0
-237 -234 236 0
-237 234 -236 0
238 237 0
-238 -237 0
239 -233 0
239 -238 0
-239 233 238 0
-241 163 0
-241 30 0
241 -163 -30 0
242 -240 -241 0
242 240 241 0
-242 -240 241 0
-242 240 -241 0
243 242 0
-243 -242 0
244 -239 0
244 -243 0
-244 239 243 0
-246 158 0
-246 240 0
246 -158 -240 0
247 -245 -246 0
247 245 246 0
-247 -245 246 0
-247 245 -246 0
248 247 0
-248 -247 0
249 -244 0
249 -248 0
-249 244 248 0
251 -250 -163 0
251 250 163 0
-251 -250 163 0
-251 250 -163 0
252 251 0
-252 -251 0
253 -249 0
253 -252 0
-253 249 252 0
-255 195 0
-255 240 0
255 -195 -240 0
256 -254 -255 0
256 254 255 0
-256 -254 255 0
-256 254 -255 0
257 256 0
-257 -256 0
258 -253 0
258 -257 0
-258 253 257 0
260 -259 -254 0
260 259 254 0
-260 -259 254 0
-260 259 -254 0
261 260 0
-261 -260 0
262 -258 0
262 -261 0
-262 258 261 0
-265 181 0
-265 264 0
265 -181 -264 0
266 -263 -265 0
266 263 265 0
-266 -263 265 0
-266 263 -265 0
267 266 0
-267 -266 0
268 -262 0
268 -267 0
-268 262 267 0
-270 205 0
-270 240 0
270 -205 -240 0
271 -269 -270 0
271 269 270 0
-271 -269 270 0
-271 269 -270 0
272 271 0
-272 -271 0
273 -268 0
273 -272 0
-273 268 272 0
275 -274 -269 0
275 274 269 0
-275 -274 269 0
-275 274 -269 0
276 275 0
-276 -275 0
277 -273 0
277 -276 0
-277 273 276 0
279 -278 -181 0
279 278 181 0
-279 -278 181 0
-279 278 -181 0
280 279 0
-280 -279 0
281 -277 0
281 -280 0
-281 277 280 0
283 -282 -126 0
283 282 126 0
-283 -282 126 0
-283 282 -126 0
284 283 0
-284 -283 0
285 -281 0
285 -284 0
-285 281 284 0
-287 158 0
-287 282 0
287 -158 -282 0
288 -286 -287 0
288 286 287 0
-288 -286 287 0
-288 286 -287 0
289 288 0
-289 -288 0
290 -285 0
290 -289 0
-290 285 289 0
-292 185 0
-292 282 0
292 -185 -282 0
293 -291 -292 0
293 291 292 0
-293 -291 292 0
-293 291 -292 0
294 293 0
-294 -293 0
295 -290 0
295 -294 0
-295 290 294 0
-297 195 0
-297 282 0
297 -195 -282 0
298 -296 -297 0
298 296 297 0
-298 -296 297 0
-298 296 -297 0
299 298 0
-299 -298 0
300 -295 0
300 -299 0
-300 295 299 0
-302 205 0
-302 282 0
302 -205 -282 0
303 -301 -302 0
303 301 302 0
-303 -301 302 0
-303 301 -302 0
304 303 0
-304 -303 0
305 -300 0
305 -304 0
-305 300 304 0
307 -306 -219 0
307 306 219 0
-307 -306 219 0
-307 306 -219 0
308 307 0
-308 -307 0
309 -305 0
309 -308 0
-309 305 308 0
-312 2 0
-312 311 0
312 -2 -311 0
313 -310 -312 0
313 310 312 0
-313 -310 312 0
-313 310 -312 0
314 313 0
-314 -313 0
315 -309 0
315 -314 0
-315 309 314 0
317 -316 -224 0
317 316 224 0
-317 -316 224 0
-317 316 -224 0
318 317 0
-318 -317 0
319 -315 0
319 -318 0
-319 315 318 0
321 -320 -282 0
321 320 282 0
-321 -320 282 0
-321 320 -282 0
322 321 0
-322 -321 0
323 -319 0
323 -322 0
-323 319 322 0
325 -324 -154 0
325 324 154 0
-325 -324 154 0
-325 324 -154 0
326 325 0
-326 -325 0
327 -323 0
327 -326 0
-327 323 326 0
-329 328 0
-329 176 0
329 -328 -176 0
-331 181 0
-331 330 0
331 -181 -330 0
-332 331 0
-332 190 0
332 -331 -190 0
333 -329 0
333 -332 0
-333 329 332 0
-335 181 0
-335 334 0
335 -181 -334 0
-336 335 0
-336 200 0
336 -335 -200 0
-338 181 0
-338 337 0
338 -181 -337 0
-339 338 0
-339 209 0
339 -338 -209 0
340 -336 0
340 -339 0
-340 336 339 0
341 -333 0
341 -340 0
-341 333 340 0
-343 181 0
-343 342 0
343 -181 -342 0
-344 343 0
-344 219 0
344 -343 -219 0
-346 181 0
-346 345 0
346 -181 -345 0
-347 346 0
-347 224 0
347 -346 -224 0
348 -344 0
348 -347 0
-348 344 347 0
-350 181 0
-350 349 0
350 -181 -349 0
-351 350 0
-351 229 0
351 -350 -229 0
-353 181 0
-353 352 0
353 -181 -352 0
-354 353 0
-354 234 0
354 -353 -234 0
355 -351 0
355 -354 0
-355 351 354 0
356 -348 0
356 -355 0
-356 348 355 0
357 -341 0
357 -356 0
-357 341 356 0
-359 181 0
-359 358 0
359 -181 -358 0
-360 359 0
-360 245 0
360 -359 -245 0
-362 181 0
-362 361 0
362 -181 -361 0
-364 362 0
-364 363 0
364 -362 -363 0
365 -360 0
365 -364 0
-365 360 364 0
367 -365 0
367 -366 0
-367 365 366 0
-369 181 0
-369 368 0
369 -181 -368 0
-370 369 0
-370 286 0
370 -369 -286 0
-372 181 0
-372 371 0
372 -181 -371 0
-373 372 0
-373 291 0
373 -372 -291 0
374 -370 0
374 -373 0
-374 370 373 0
-376 181 0
-376 375 0
376 -181 -375 0
-377 376 0
-377 296 0
377 -376 -296 0
-379 181 0
-379 378 0
379 -181 -378 0
-380 379 0
-380 301 0
380 -379 -301 0
381 -377 0
381 -380 0
-381 377 380 0
382 -374 0
382 -381 0
-382 374 381 0
383 -367 0
383 -382 0
-383 367 382 0
384 -357 0
384 -383 0
-384 357 383 0
-386 2 0
-386 385 0
386 -2 -385 0
-387 386 0
-387 176 0
387 -386 -176 0
-389 2 0
-389 388 0
389 -2 -388 0
-390 389 0
-390 190 0
390 -389 -190 0
391 -387 0
391 -390 0
-391 387 390 0
-393 2 0
-393 392 0
393 -2 -392 0
-394 393 0
-394 200 0
394 -393 -200 0
-396 2 0
-396 395 0
396 -2 -395 0
-397 396 0
-397 209 0
397 -396 -209 0
398 -394 0
398 -397 0
-398 394 397 0
399 -391 0
399 -398 0
-399 391 398 0
-402 2 0
-402 401 0
402 -2 -401 0
-403 402 0
-403 229 0
403 -402 -229 0
-405 2 0
-405 404 0
405 -2 -404 0
-406 405 0
-406 234 0
406 -405 -234 0
407 -403 0
407 -406 0
-407 403 406 0
408 -400 0
408 -407 0
-408 400 407 0
409 -399 0
409 -408 0
-409 399 408 0
-411 2 0
-411 410 0
411 -2 -410 0
-412 411 0
-412 245 0
412 -411 -245 0
-414 2 0
-414 413 0
414 -2 -413 0
-415 414 0
-415 363 0
415 -414 -363 0
416 -412 0
416 -415 0
-416 412 415 0
-418 2 0
-418 417 0
418 -2 -417 0
-419 418 0
-419 254 0
419 -418 -254 0
-421 2 0
-421 420 0
421 -2 -420 0
-422 421 0
-422 269 0
422 -421 -269 0
423 -419 0
423 -422 0
-423 419 422 0
424 -416 0
424 -423 0
-424 416 423 0
-426 2 0
-426 425 0
426 -2 -425 0
-427 426 0
-427 286 0
427 -426 -286 0
429 -427 0
429 -428 0
-429 427 428 0
-431 2 0
-431 430 0
431 -2 -430 0
-432 431 0
-432 296 0
432 -431 -296 0
-434 2 0
-434 433 0
434 -2 -433 0
-435 434 0
-435 301 0
435 -434 -301 0
436 -432 0
436 -435 0
-436 432 435 0
437 -429 0
437 -436 0
-437 429 436 0
438 -424 0
438 -437 0
-438 424 437 0
439 -409 0
439 -438 0
-439 409 438 0
440 -384 0
440 -439 0
-440 384 439 0
-442 1 0
-442 441 0
442 -1 -441 0
-443 442 0
-443 40 0
443 -442 -40 0
-444 1 0
-444 330 0
444 -1 -330 0
-445 444 0
-445 50 0
445 -444 -50 0
446 -443 0
446 -445 0
-446 443 445 0
-447 1 0
-447 334 0
447 -1 -334 0
-448 447 0
-448 60 0
448 -447 -60 0
-449 1 0
-449 337 0
449 -1 -337 0
-450 449 0
-450 70 0
450 -449 -70 0
451 -448 0
451 -450 0
-451 448 450 0
452 -446 0
452 -451 0
-452 446 451 0
-453 1 0
-453 342 0
453 -1 -342 0
-454 453 0
-454 80 0
454 -453 -80 0
-455 1 0
-455 345 0
455 -1 -345 0
-456 455 0
-456 85 0
456 -455 -85 0
457 -454 0
457 -456 0
-457 454 456 0
-458 1 0
-458 349 0
458 -1 -349 0
-459 458 0
-459 90 0
459 -458 -90 0
-460 1 0
-460 352 0
460 -1 -352 0
-461 460 0
-461 95 0
461 -460 -95 0
462 -459 0
462 -461 0
-462 459 461 0
463 -457 0
463 -462 0
-463 457 462 0
464 -452 0
464 -463 0
-464 452 463 0
-465 1 0
-465 358 0
465 -1 -358 0
-466 465 0
-466 105 0
466 -465 -105 0
-467 1 0
-467 361 0
467 -1 -361 0
-468 467 0
-468 110 0
468 -467 -110 0
469 -466 0
469 -468 0
-469 466 468 0
-471 1 0
-471 470 0
471 -1 -470 0
-472 471 0
-472 115 0
472 -471 -115 0
-473 1 0
-473 264 0
473 -1 -264 0
-474 473 0
-474 120 0
474 -473 -120 0
475 -472 0
475 -474 0
-475 472 474 0
476 -469 0
476 -475 0
-476 469 475 0
-477 1 0
-477 368 0
477 -1 -368 0
-478 477 0
-478 130 0
478 -477 -130 0
-479 1 0
-479 371 0
479 -1 -371 0
-480 479 0
-480 135 0
480 -479 -135 0
481 -478 0
481 -480 0
-481 478 480 0
-482 1 0
-482 375 0
482 -1 -375 0
-483 482 0
-483 140 0
483 -482 -140 0
-484 1 0
-484 378 0
484 -1 -378 0
-485 484 0
-485 145 0
485 -484 -145 0
486 -483 0
486 -485 0
-486 483 485 0
487 -481 0
487 -486 0
-487 481 486 0
488 -476 0
488 -487 0
-488 476 487 0
489 -464 0
489 -488 0
-489 464 488 0
-490 386 0
-490 40 0
490 -386 -40 0
-491 389 0
-491 50 0
491 -389 -50 0
492 -490 0
492 -491 0
-492 490 491 0
-493 393 0
-493 60 0
493 -393 -60 0
-494 396 0
-494 70 0
494 -396 -70 0
495 -493 0
495 -494 0
-495 493 494 0
496 -492 0
496 -495 0
-496 492 495 0
-498 2 0
-498 497 0
498 -2 -497 0
-499 498 0
-499 80 0
499 -498 -80 0
-500 312 0
-500 85 0
500 -312 -85 0
501 -499 0
501 -500 0
-501 499 500 0
-502 402 0
-502 90 0
502 -402 -90 0
-503 405 0
-503 95 0
503 -405 -95 0
504 -502 0
504 -503 0
-504 502 503 0
505 -501 0
505 -504 0
-505 501 504 0
506 -496 0
506 -505 0
-506 496 505 0
-507 411 0
-507 105 0
507 -411 -105 0
-508 414 0
-508 110 0
508 -414 -110 0
509 -507 0
509 -508 0
-509 507 508 0
-510 418 0
-510 115 0
510 -418 -115 0
-511 421 0
-511 120 0
511 -421 -120 0
512 -510 0
512 -511 0
-512 510 511 0
513 -509 0
513 -512 0
-513 509 512 0
-514 426 0
-514 130 0
514 -426 -130 0
-516 2 0
-516 515 0
516 -2 -515 0
-517 516 0
-517 135 0
517 -516 -135 0
518 -514 0
518 -517 0
-518 514 517 0
-519 431 0
-519 140 0
519 -431 -140 0
-520 434 0
-520 145 0
520 -434 -145 0
521 -519 0
521 -520 0
-521 519 520 0
522 -518 0
522 -521 0
-522 518 521 0
523 -513 0
523 -522 0
-523 513 522 0
524 -506 0
524 -523 0
-524 506 523 0
525 -489 0
525 -524 0
-525 489 524 0
526 -440 -525 0
526 440 525 0
-526 -440 525 0
-526 440 -525 0
527 -327 0
527 -526 0
-527 327 526 0
527 0
